10
20
1020004
0
0
89 80 58 94 59 9 52 84 6 18 77 8 42 19 85 52 48 87 68 67 
1
0
93 77 55 91 60 1 45 85 11 22 80 10 39 24 95 52 51 91 65 70 
2
0
99 71 53 99 59 11 45 88 9 24 80 11 37 25 89 55 50 91 68 66 
3
0
96 73 54 97 52 11 44 79 14 26 80 10 42 27 87 62 47 86 65 70 
4
0
91 70 58 90 54 10 47 79 6 26 80 12 36 27 92 61 58 86 62 69 
5
0
96 72 48 99 58 6 48 79 6 18 77 12 40 26 91 61 55 97 67 64 
6
0
96 75 50 96 53 11 47 83 10 16 76 7 39 28 88 57 54 91 69 74 
7
0
89 74 58 91 59 11 47 86 4 26 72 8 34 27 85 54 53 94 66 64 
8
0
93 74 48 94 51 11 48 88 6 26 75 2 42 27 86 53 49 92 66 66 
9
0
95 80 49 100 58 4 45 79 11 23 77 6 36 19 93 55 57 86 62 67 
